c created by edge2cnf
p cnf 500 3100
-1 -2 0
-1 -3 0
-1 -4 0
-1 -5 0
-2 -3 0
-2 -4 0
-2 -5 0
-3 -4 0
-3 -5 0
-4 -5 0
1 2 3 4 5 0
-6 -7 0
-6 -8 0
-6 -9 0
-6 -10 0
-7 -8 0
-7 -9 0
-7 -10 0
-8 -9 0
-8 -10 0
-9 -10 0
6 7 8 9 10 0
-11 -12 0
-11 -13 0
-11 -14 0
-11 -15 0
-12 -13 0
-12 -14 0
-12 -15 0
-13 -14 0
-13 -15 0
-14 -15 0
11 12 13 14 15 0
-16 -17 0
-16 -18 0
-16 -19 0
-16 -20 0
-17 -18 0
-17 -19 0
-17 -20 0
-18 -19 0
-18 -20 0
-19 -20 0
16 17 18 19 20 0
-21 -22 0
-21 -23 0
-21 -24 0
-21 -25 0
-22 -23 0
-22 -24 0
-22 -25 0
-23 -24 0
-23 -25 0
-24 -25 0
21 22 23 24 25 0
-26 -27 0
-26 -28 0
-26 -29 0
-26 -30 0
-27 -28 0
-27 -29 0
-27 -30 0
-28 -29 0
-28 -30 0
-29 -30 0
26 27 28 29 30 0
-31 -32 0
-31 -33 0
-31 -34 0
-31 -35 0
-32 -33 0
-32 -34 0
-32 -35 0
-33 -34 0
-33 -35 0
-34 -35 0
31 32 33 34 35 0
-36 -37 0
-36 -38 0
-36 -39 0
-36 -40 0
-37 -38 0
-37 -39 0
-37 -40 0
-38 -39 0
-38 -40 0
-39 -40 0
36 37 38 39 40 0
-41 -42 0
-41 -43 0
-41 -44 0
-41 -45 0
-42 -43 0
-42 -44 0
-42 -45 0
-43 -44 0
-43 -45 0
-44 -45 0
41 42 43 44 45 0
-46 -47 0
-46 -48 0
-46 -49 0
-46 -50 0
-47 -48 0
-47 -49 0
-47 -50 0
-48 -49 0
-48 -50 0
-49 -50 0
46 47 48 49 50 0
-51 -52 0
-51 -53 0
-51 -54 0
-51 -55 0
-52 -53 0
-52 -54 0
-52 -55 0
-53 -54 0
-53 -55 0
-54 -55 0
51 52 53 54 55 0
-56 -57 0
-56 -58 0
-56 -59 0
-56 -60 0
-57 -58 0
-57 -59 0
-57 -60 0
-58 -59 0
-58 -60 0
-59 -60 0
56 57 58 59 60 0
-61 -62 0
-61 -63 0
-61 -64 0
-61 -65 0
-62 -63 0
-62 -64 0
-62 -65 0
-63 -64 0
-63 -65 0
-64 -65 0
61 62 63 64 65 0
-66 -67 0
-66 -68 0
-66 -69 0
-66 -70 0
-67 -68 0
-67 -69 0
-67 -70 0
-68 -69 0
-68 -70 0
-69 -70 0
66 67 68 69 70 0
-71 -72 0
-71 -73 0
-71 -74 0
-71 -75 0
-72 -73 0
-72 -74 0
-72 -75 0
-73 -74 0
-73 -75 0
-74 -75 0
71 72 73 74 75 0
-76 -77 0
-76 -78 0
-76 -79 0
-76 -80 0
-77 -78 0
-77 -79 0
-77 -80 0
-78 -79 0
-78 -80 0
-79 -80 0
76 77 78 79 80 0
-81 -82 0
-81 -83 0
-81 -84 0
-81 -85 0
-82 -83 0
-82 -84 0
-82 -85 0
-83 -84 0
-83 -85 0
-84 -85 0
81 82 83 84 85 0
-86 -87 0
-86 -88 0
-86 -89 0
-86 -90 0
-87 -88 0
-87 -89 0
-87 -90 0
-88 -89 0
-88 -90 0
-89 -90 0
86 87 88 89 90 0
-91 -92 0
-91 -93 0
-91 -94 0
-91 -95 0
-92 -93 0
-92 -94 0
-92 -95 0
-93 -94 0
-93 -95 0
-94 -95 0
91 92 93 94 95 0
-96 -97 0
-96 -98 0
-96 -99 0
-96 -100 0
-97 -98 0
-97 -99 0
-97 -100 0
-98 -99 0
-98 -100 0
-99 -100 0
96 97 98 99 100 0
-101 -102 0
-101 -103 0
-101 -104 0
-101 -105 0
-102 -103 0
-102 -104 0
-102 -105 0
-103 -104 0
-103 -105 0
-104 -105 0
101 102 103 104 105 0
-106 -107 0
-106 -108 0
-106 -109 0
-106 -110 0
-107 -108 0
-107 -109 0
-107 -110 0
-108 -109 0
-108 -110 0
-109 -110 0
106 107 108 109 110 0
-111 -112 0
-111 -113 0
-111 -114 0
-111 -115 0
-112 -113 0
-112 -114 0
-112 -115 0
-113 -114 0
-113 -115 0
-114 -115 0
111 112 113 114 115 0
-116 -117 0
-116 -118 0
-116 -119 0
-116 -120 0
-117 -118 0
-117 -119 0
-117 -120 0
-118 -119 0
-118 -120 0
-119 -120 0
116 117 118 119 120 0
-121 -122 0
-121 -123 0
-121 -124 0
-121 -125 0
-122 -123 0
-122 -124 0
-122 -125 0
-123 -124 0
-123 -125 0
-124 -125 0
121 122 123 124 125 0
-126 -127 0
-126 -128 0
-126 -129 0
-126 -130 0
-127 -128 0
-127 -129 0
-127 -130 0
-128 -129 0
-128 -130 0
-129 -130 0
126 127 128 129 130 0
-131 -132 0
-131 -133 0
-131 -134 0
-131 -135 0
-132 -133 0
-132 -134 0
-132 -135 0
-133 -134 0
-133 -135 0
-134 -135 0
131 132 133 134 135 0
-136 -137 0
-136 -138 0
-136 -139 0
-136 -140 0
-137 -138 0
-137 -139 0
-137 -140 0
-138 -139 0
-138 -140 0
-139 -140 0
136 137 138 139 140 0
-141 -142 0
-141 -143 0
-141 -144 0
-141 -145 0
-142 -143 0
-142 -144 0
-142 -145 0
-143 -144 0
-143 -145 0
-144 -145 0
141 142 143 144 145 0
-146 -147 0
-146 -148 0
-146 -149 0
-146 -150 0
-147 -148 0
-147 -149 0
-147 -150 0
-148 -149 0
-148 -150 0
-149 -150 0
146 147 148 149 150 0
-151 -152 0
-151 -153 0
-151 -154 0
-151 -155 0
-152 -153 0
-152 -154 0
-152 -155 0
-153 -154 0
-153 -155 0
-154 -155 0
151 152 153 154 155 0
-156 -157 0
-156 -158 0
-156 -159 0
-156 -160 0
-157 -158 0
-157 -159 0
-157 -160 0
-158 -159 0
-158 -160 0
-159 -160 0
156 157 158 159 160 0
-161 -162 0
-161 -163 0
-161 -164 0
-161 -165 0
-162 -163 0
-162 -164 0
-162 -165 0
-163 -164 0
-163 -165 0
-164 -165 0
161 162 163 164 165 0
-166 -167 0
-166 -168 0
-166 -169 0
-166 -170 0
-167 -168 0
-167 -169 0
-167 -170 0
-168 -169 0
-168 -170 0
-169 -170 0
166 167 168 169 170 0
-171 -172 0
-171 -173 0
-171 -174 0
-171 -175 0
-172 -173 0
-172 -174 0
-172 -175 0
-173 -174 0
-173 -175 0
-174 -175 0
171 172 173 174 175 0
-176 -177 0
-176 -178 0
-176 -179 0
-176 -180 0
-177 -178 0
-177 -179 0
-177 -180 0
-178 -179 0
-178 -180 0
-179 -180 0
176 177 178 179 180 0
-181 -182 0
-181 -183 0
-181 -184 0
-181 -185 0
-182 -183 0
-182 -184 0
-182 -185 0
-183 -184 0
-183 -185 0
-184 -185 0
181 182 183 184 185 0
-186 -187 0
-186 -188 0
-186 -189 0
-186 -190 0
-187 -188 0
-187 -189 0
-187 -190 0
-188 -189 0
-188 -190 0
-189 -190 0
186 187 188 189 190 0
-191 -192 0
-191 -193 0
-191 -194 0
-191 -195 0
-192 -193 0
-192 -194 0
-192 -195 0
-193 -194 0
-193 -195 0
-194 -195 0
191 192 193 194 195 0
-196 -197 0
-196 -198 0
-196 -199 0
-196 -200 0
-197 -198 0
-197 -199 0
-197 -200 0
-198 -199 0
-198 -200 0
-199 -200 0
196 197 198 199 200 0
-201 -202 0
-201 -203 0
-201 -204 0
-201 -205 0
-202 -203 0
-202 -204 0
-202 -205 0
-203 -204 0
-203 -205 0
-204 -205 0
201 202 203 204 205 0
-206 -207 0
-206 -208 0
-206 -209 0
-206 -210 0
-207 -208 0
-207 -209 0
-207 -210 0
-208 -209 0
-208 -210 0
-209 -210 0
206 207 208 209 210 0
-211 -212 0
-211 -213 0
-211 -214 0
-211 -215 0
-212 -213 0
-212 -214 0
-212 -215 0
-213 -214 0
-213 -215 0
-214 -215 0
211 212 213 214 215 0
-216 -217 0
-216 -218 0
-216 -219 0
-216 -220 0
-217 -218 0
-217 -219 0
-217 -220 0
-218 -219 0
-218 -220 0
-219 -220 0
216 217 218 219 220 0
-221 -222 0
-221 -223 0
-221 -224 0
-221 -225 0
-222 -223 0
-222 -224 0
-222 -225 0
-223 -224 0
-223 -225 0
-224 -225 0
221 222 223 224 225 0
-226 -227 0
-226 -228 0
-226 -229 0
-226 -230 0
-227 -228 0
-227 -229 0
-227 -230 0
-228 -229 0
-228 -230 0
-229 -230 0
226 227 228 229 230 0
-231 -232 0
-231 -233 0
-231 -234 0
-231 -235 0
-232 -233 0
-232 -234 0
-232 -235 0
-233 -234 0
-233 -235 0
-234 -235 0
231 232 233 234 235 0
-236 -237 0
-236 -238 0
-236 -239 0
-236 -240 0
-237 -238 0
-237 -239 0
-237 -240 0
-238 -239 0
-238 -240 0
-239 -240 0
236 237 238 239 240 0
-241 -242 0
-241 -243 0
-241 -244 0
-241 -245 0
-242 -243 0
-242 -244 0
-242 -245 0
-243 -244 0
-243 -245 0
-244 -245 0
241 242 243 244 245 0
-246 -247 0
-246 -248 0
-246 -249 0
-246 -250 0
-247 -248 0
-247 -249 0
-247 -250 0
-248 -249 0
-248 -250 0
-249 -250 0
246 247 248 249 250 0
-251 -252 0
-251 -253 0
-251 -254 0
-251 -255 0
-252 -253 0
-252 -254 0
-252 -255 0
-253 -254 0
-253 -255 0
-254 -255 0
251 252 253 254 255 0
-256 -257 0
-256 -258 0
-256 -259 0
-256 -260 0
-257 -258 0
-257 -259 0
-257 -260 0
-258 -259 0
-258 -260 0
-259 -260 0
256 257 258 259 260 0
-261 -262 0
-261 -263 0
-261 -264 0
-261 -265 0
-262 -263 0
-262 -264 0
-262 -265 0
-263 -264 0
-263 -265 0
-264 -265 0
261 262 263 264 265 0
-266 -267 0
-266 -268 0
-266 -269 0
-266 -270 0
-267 -268 0
-267 -269 0
-267 -270 0
-268 -269 0
-268 -270 0
-269 -270 0
266 267 268 269 270 0
-271 -272 0
-271 -273 0
-271 -274 0
-271 -275 0
-272 -273 0
-272 -274 0
-272 -275 0
-273 -274 0
-273 -275 0
-274 -275 0
271 272 273 274 275 0
-276 -277 0
-276 -278 0
-276 -279 0
-276 -280 0
-277 -278 0
-277 -279 0
-277 -280 0
-278 -279 0
-278 -280 0
-279 -280 0
276 277 278 279 280 0
-281 -282 0
-281 -283 0
-281 -284 0
-281 -285 0
-282 -283 0
-282 -284 0
-282 -285 0
-283 -284 0
-283 -285 0
-284 -285 0
281 282 283 284 285 0
-286 -287 0
-286 -288 0
-286 -289 0
-286 -290 0
-287 -288 0
-287 -289 0
-287 -290 0
-288 -289 0
-288 -290 0
-289 -290 0
286 287 288 289 290 0
-291 -292 0
-291 -293 0
-291 -294 0
-291 -295 0
-292 -293 0
-292 -294 0
-292 -295 0
-293 -294 0
-293 -295 0
-294 -295 0
291 292 293 294 295 0
-296 -297 0
-296 -298 0
-296 -299 0
-296 -300 0
-297 -298 0
-297 -299 0
-297 -300 0
-298 -299 0
-298 -300 0
-299 -300 0
296 297 298 299 300 0
-301 -302 0
-301 -303 0
-301 -304 0
-301 -305 0
-302 -303 0
-302 -304 0
-302 -305 0
-303 -304 0
-303 -305 0
-304 -305 0
301 302 303 304 305 0
-306 -307 0
-306 -308 0
-306 -309 0
-306 -310 0
-307 -308 0
-307 -309 0
-307 -310 0
-308 -309 0
-308 -310 0
-309 -310 0
306 307 308 309 310 0
-311 -312 0
-311 -313 0
-311 -314 0
-311 -315 0
-312 -313 0
-312 -314 0
-312 -315 0
-313 -314 0
-313 -315 0
-314 -315 0
311 312 313 314 315 0
-316 -317 0
-316 -318 0
-316 -319 0
-316 -320 0
-317 -318 0
-317 -319 0
-317 -320 0
-318 -319 0
-318 -320 0
-319 -320 0
316 317 318 319 320 0
-321 -322 0
-321 -323 0
-321 -324 0
-321 -325 0
-322 -323 0
-322 -324 0
-322 -325 0
-323 -324 0
-323 -325 0
-324 -325 0
321 322 323 324 325 0
-326 -327 0
-326 -328 0
-326 -329 0
-326 -330 0
-327 -328 0
-327 -329 0
-327 -330 0
-328 -329 0
-328 -330 0
-329 -330 0
326 327 328 329 330 0
-331 -332 0
-331 -333 0
-331 -334 0
-331 -335 0
-332 -333 0
-332 -334 0
-332 -335 0
-333 -334 0
-333 -335 0
-334 -335 0
331 332 333 334 335 0
-336 -337 0
-336 -338 0
-336 -339 0
-336 -340 0
-337 -338 0
-337 -339 0
-337 -340 0
-338 -339 0
-338 -340 0
-339 -340 0
336 337 338 339 340 0
-341 -342 0
-341 -343 0
-341 -344 0
-341 -345 0
-342 -343 0
-342 -344 0
-342 -345 0
-343 -344 0
-343 -345 0
-344 -345 0
341 342 343 344 345 0
-346 -347 0
-346 -348 0
-346 -349 0
-346 -350 0
-347 -348 0
-347 -349 0
-347 -350 0
-348 -349 0
-348 -350 0
-349 -350 0
346 347 348 349 350 0
-351 -352 0
-351 -353 0
-351 -354 0
-351 -355 0
-352 -353 0
-352 -354 0
-352 -355 0
-353 -354 0
-353 -355 0
-354 -355 0
351 352 353 354 355 0
-356 -357 0
-356 -358 0
-356 -359 0
-356 -360 0
-357 -358 0
-357 -359 0
-357 -360 0
-358 -359 0
-358 -360 0
-359 -360 0
356 357 358 359 360 0
-361 -362 0
-361 -363 0
-361 -364 0
-361 -365 0
-362 -363 0
-362 -364 0
-362 -365 0
-363 -364 0
-363 -365 0
-364 -365 0
361 362 363 364 365 0
-366 -367 0
-366 -368 0
-366 -369 0
-366 -370 0
-367 -368 0
-367 -369 0
-367 -370 0
-368 -369 0
-368 -370 0
-369 -370 0
366 367 368 369 370 0
-371 -372 0
-371 -373 0
-371 -374 0
-371 -375 0
-372 -373 0
-372 -374 0
-372 -375 0
-373 -374 0
-373 -375 0
-374 -375 0
371 372 373 374 375 0
-376 -377 0
-376 -378 0
-376 -379 0
-376 -380 0
-377 -378 0
-377 -379 0
-377 -380 0
-378 -379 0
-378 -380 0
-379 -380 0
376 377 378 379 380 0
-381 -382 0
-381 -383 0
-381 -384 0
-381 -385 0
-382 -383 0
-382 -384 0
-382 -385 0
-383 -384 0
-383 -385 0
-384 -385 0
381 382 383 384 385 0
-386 -387 0
-386 -388 0
-386 -389 0
-386 -390 0
-387 -388 0
-387 -389 0
-387 -390 0
-388 -389 0
-388 -390 0
-389 -390 0
386 387 388 389 390 0
-391 -392 0
-391 -393 0
-391 -394 0
-391 -395 0
-392 -393 0
-392 -394 0
-392 -395 0
-393 -394 0
-393 -395 0
-394 -395 0
391 392 393 394 395 0
-396 -397 0
-396 -398 0
-396 -399 0
-396 -400 0
-397 -398 0
-397 -399 0
-397 -400 0
-398 -399 0
-398 -400 0
-399 -400 0
396 397 398 399 400 0
-401 -402 0
-401 -403 0
-401 -404 0
-401 -405 0
-402 -403 0
-402 -404 0
-402 -405 0
-403 -404 0
-403 -405 0
-404 -405 0
401 402 403 404 405 0
-406 -407 0
-406 -408 0
-406 -409 0
-406 -410 0
-407 -408 0
-407 -409 0
-407 -410 0
-408 -409 0
-408 -410 0
-409 -410 0
406 407 408 409 410 0
-411 -412 0
-411 -413 0
-411 -414 0
-411 -415 0
-412 -413 0
-412 -414 0
-412 -415 0
-413 -414 0
-413 -415 0
-414 -415 0
411 412 413 414 415 0
-416 -417 0
-416 -418 0
-416 -419 0
-416 -420 0
-417 -418 0
-417 -419 0
-417 -420 0
-418 -419 0
-418 -420 0
-419 -420 0
416 417 418 419 420 0
-421 -422 0
-421 -423 0
-421 -424 0
-421 -425 0
-422 -423 0
-422 -424 0
-422 -425 0
-423 -424 0
-423 -425 0
-424 -425 0
421 422 423 424 425 0
-426 -427 0
-426 -428 0
-426 -429 0
-426 -430 0
-427 -428 0
-427 -429 0
-427 -430 0
-428 -429 0
-428 -430 0
-429 -430 0
426 427 428 429 430 0
-431 -432 0
-431 -433 0
-431 -434 0
-431 -435 0
-432 -433 0
-432 -434 0
-432 -435 0
-433 -434 0
-433 -435 0
-434 -435 0
431 432 433 434 435 0
-436 -437 0
-436 -438 0
-436 -439 0
-436 -440 0
-437 -438 0
-437 -439 0
-437 -440 0
-438 -439 0
-438 -440 0
-439 -440 0
436 437 438 439 440 0
-441 -442 0
-441 -443 0
-441 -444 0
-441 -445 0
-442 -443 0
-442 -444 0
-442 -445 0
-443 -444 0
-443 -445 0
-444 -445 0
441 442 443 444 445 0
-446 -447 0
-446 -448 0
-446 -449 0
-446 -450 0
-447 -448 0
-447 -449 0
-447 -450 0
-448 -449 0
-448 -450 0
-449 -450 0
446 447 448 449 450 0
-451 -452 0
-451 -453 0
-451 -454 0
-451 -455 0
-452 -453 0
-452 -454 0
-452 -455 0
-453 -454 0
-453 -455 0
-454 -455 0
451 452 453 454 455 0
-456 -457 0
-456 -458 0
-456 -459 0
-456 -460 0
-457 -458 0
-457 -459 0
-457 -460 0
-458 -459 0
-458 -460 0
-459 -460 0
456 457 458 459 460 0
-461 -462 0
-461 -463 0
-461 -464 0
-461 -465 0
-462 -463 0
-462 -464 0
-462 -465 0
-463 -464 0
-463 -465 0
-464 -465 0
461 462 463 464 465 0
-466 -467 0
-466 -468 0
-466 -469 0
-466 -470 0
-467 -468 0
-467 -469 0
-467 -470 0
-468 -469 0
-468 -470 0
-469 -470 0
466 467 468 469 470 0
-471 -472 0
-471 -473 0
-471 -474 0
-471 -475 0
-472 -473 0
-472 -474 0
-472 -475 0
-473 -474 0
-473 -475 0
-474 -475 0
471 472 473 474 475 0
-476 -477 0
-476 -478 0
-476 -479 0
-476 -480 0
-477 -478 0
-477 -479 0
-477 -480 0
-478 -479 0
-478 -480 0
-479 -480 0
476 477 478 479 480 0
-481 -482 0
-481 -483 0
-481 -484 0
-481 -485 0
-482 -483 0
-482 -484 0
-482 -485 0
-483 -484 0
-483 -485 0
-484 -485 0
481 482 483 484 485 0
-486 -487 0
-486 -488 0
-486 -489 0
-486 -490 0
-487 -488 0
-487 -489 0
-487 -490 0
-488 -489 0
-488 -490 0
-489 -490 0
486 487 488 489 490 0
-491 -492 0
-491 -493 0
-491 -494 0
-491 -495 0
-492 -493 0
-492 -494 0
-492 -495 0
-493 -494 0
-493 -495 0
-494 -495 0
491 492 493 494 495 0
-496 -497 0
-496 -498 0
-496 -499 0
-496 -500 0
-497 -498 0
-497 -499 0
-497 -500 0
-498 -499 0
-498 -500 0
-499 -500 0
496 497 498 499 500 0
-11 -31 0
-12 -32 0
-13 -33 0
-14 -34 0
-15 -35 0
-16 -21 0
-17 -22 0
-18 -23 0
-19 -24 0
-20 -25 0
-16 -31 0
-17 -32 0
-18 -33 0
-19 -34 0
-20 -35 0
-26 -31 0
-27 -32 0
-28 -33 0
-29 -34 0
-30 -35 0
-26 -36 0
-27 -37 0
-28 -38 0
-29 -39 0
-30 -40 0
-51 -61 0
-52 -62 0
-53 -63 0
-54 -64 0
-55 -65 0
-71 -91 0
-72 -92 0
-73 -93 0
-74 -94 0
-75 -95 0
-81 -91 0
-82 -92 0
-83 -93 0
-84 -94 0
-85 -95 0
-86 -96 0
-87 -97 0
-88 -98 0
-89 -99 0
-90 -100 0
-126 -146 0
-127 -147 0
-128 -148 0
-129 -149 0
-130 -150 0
-171 -176 0
-172 -177 0
-173 -178 0
-174 -179 0
-175 -180 0
-191 -206 0
-192 -207 0
-193 -208 0
-194 -209 0
-195 -210 0
-201 -206 0
-202 -207 0
-203 -208 0
-204 -209 0
-205 -210 0
-201 -221 0
-202 -222 0
-203 -223 0
-204 -224 0
-205 -225 0
-226 -231 0
-227 -232 0
-228 -233 0
-229 -234 0
-230 -235 0
-236 -256 0
-237 -257 0
-238 -258 0
-239 -259 0
-240 -260 0
-251 -261 0
-252 -262 0
-253 -263 0
-254 -264 0
-255 -265 0
-251 -266 0
-252 -267 0
-253 -268 0
-254 -269 0
-255 -270 0
-256 -271 0
-257 -272 0
-258 -273 0
-259 -274 0
-260 -275 0
-261 -266 0
-262 -267 0
-263 -268 0
-264 -269 0
-265 -270 0
-266 -281 0
-267 -282 0
-268 -283 0
-269 -284 0
-270 -285 0
-286 -296 0
-287 -297 0
-288 -298 0
-289 -299 0
-290 -300 0
-291 -301 0
-292 -302 0
-293 -303 0
-294 -304 0
-295 -305 0
-316 -336 0
-317 -337 0
-318 -338 0
-319 -339 0
-320 -340 0
-341 -356 0
-342 -357 0
-343 -358 0
-344 -359 0
-345 -360 0
-376 -391 0
-377 -392 0
-378 -393 0
-379 -394 0
-380 -395 0
-381 -386 0
-382 -387 0
-383 -388 0
-384 -389 0
-385 -390 0
-381 -391 0
-382 -392 0
-383 -393 0
-384 -394 0
-385 -395 0
-411 -421 0
-412 -422 0
-413 -423 0
-414 -424 0
-415 -425 0
-411 -431 0
-412 -432 0
-413 -433 0
-414 -434 0
-415 -435 0
-416 -426 0
-417 -427 0
-418 -428 0
-419 -429 0
-420 -430 0
-416 -431 0
-417 -432 0
-418 -433 0
-419 -434 0
-420 -435 0
-441 -446 0
-442 -447 0
-443 -448 0
-444 -449 0
-445 -450 0
-451 -461 0
-452 -462 0
-453 -463 0
-454 -464 0
-455 -465 0
-456 -466 0
-457 -467 0
-458 -468 0
-459 -469 0
-460 -470 0
-476 -486 0
-477 -487 0
-478 -488 0
-479 -489 0
-480 -490 0
-6 -491 0
-7 -492 0
-8 -493 0
-9 -494 0
-10 -495 0
-16 -496 0
-17 -497 0
-18 -498 0
-19 -499 0
-20 -500 0
-6 -496 0
-7 -497 0
-8 -498 0
-9 -499 0
-10 -500 0
-11 -491 0
-12 -492 0
-13 -493 0
-14 -494 0
-15 -495 0
-491 -496 0
-492 -497 0
-493 -498 0
-494 -499 0
-495 -500 0
-6 -486 0
-7 -487 0
-8 -488 0
-9 -489 0
-10 -490 0
-1 -486 0
-2 -487 0
-3 -488 0
-4 -489 0
-5 -490 0
-486 -496 0
-487 -497 0
-488 -498 0
-489 -499 0
-490 -500 0
-1 -481 0
-2 -482 0
-3 -483 0
-4 -484 0
-5 -485 0
-481 -486 0
-482 -487 0
-483 -488 0
-484 -489 0
-485 -490 0
-476 -491 0
-477 -492 0
-478 -493 0
-479 -494 0
-480 -495 0
-476 -481 0
-477 -482 0
-478 -483 0
-479 -484 0
-480 -485 0
-471 -476 0
-472 -477 0
-473 -478 0
-474 -479 0
-475 -480 0
-466 -471 0
-467 -472 0
-468 -473 0
-469 -474 0
-470 -475 0
-461 -476 0
-462 -477 0
-463 -478 0
-464 -479 0
-465 -480 0
-456 -461 0
-457 -462 0
-458 -463 0
-459 -464 0
-460 -465 0
-451 -456 0
-452 -457 0
-453 -458 0
-454 -459 0
-455 -460 0
-446 -466 0
-447 -467 0
-448 -468 0
-449 -469 0
-450 -470 0
-446 -461 0
-447 -462 0
-448 -463 0
-449 -464 0
-450 -465 0
-441 -461 0
-442 -462 0
-443 -463 0
-444 -464 0
-445 -465 0
-441 -456 0
-442 -457 0
-443 -458 0
-444 -459 0
-445 -460 0
-441 -451 0
-442 -452 0
-443 -453 0
-444 -454 0
-445 -455 0
-436 -451 0
-437 -452 0
-438 -453 0
-439 -454 0
-440 -455 0
-431 -451 0
-432 -452 0
-433 -453 0
-434 -454 0
-435 -455 0
-431 -446 0
-432 -447 0
-433 -448 0
-434 -449 0
-435 -450 0
-431 -441 0
-432 -442 0
-433 -443 0
-434 -444 0
-435 -445 0
-416 -421 0
-417 -422 0
-418 -423 0
-419 -424 0
-420 -425 0
-411 -416 0
-412 -417 0
-413 -418 0
-414 -419 0
-415 -420 0
-406 -421 0
-407 -422 0
-408 -423 0
-409 -424 0
-410 -425 0
-406 -416 0
-407 -417 0
-408 -418 0
-409 -419 0
-410 -420 0
-406 -411 0
-407 -412 0
-408 -413 0
-409 -414 0
-410 -415 0
-401 -421 0
-402 -422 0
-403 -423 0
-404 -424 0
-405 -425 0
-401 -416 0
-402 -417 0
-403 -418 0
-404 -419 0
-405 -420 0
-401 -406 0
-402 -407 0
-403 -408 0
-404 -409 0
-405 -410 0
-396 -411 0
-397 -412 0
-398 -413 0
-399 -414 0
-400 -415 0
-396 -401 0
-397 -402 0
-398 -403 0
-399 -404 0
-400 -405 0
-391 -406 0
-392 -407 0
-393 -408 0
-394 -409 0
-395 -410 0
-391 -396 0
-392 -397 0
-393 -398 0
-394 -399 0
-395 -400 0
-386 -406 0
-387 -407 0
-388 -408 0
-389 -409 0
-390 -410 0
-381 -396 0
-382 -397 0
-383 -398 0
-384 -399 0
-385 -400 0
-376 -386 0
-377 -387 0
-378 -388 0
-379 -389 0
-380 -390 0
-371 -381 0
-372 -382 0
-373 -383 0
-374 -384 0
-375 -385 0
-366 -386 0
-367 -387 0
-368 -388 0
-369 -389 0
-370 -390 0
-366 -381 0
-367 -382 0
-368 -383 0
-369 -384 0
-370 -385 0
-366 -376 0
-367 -377 0
-368 -378 0
-369 -379 0
-370 -380 0
-366 -371 0
-367 -372 0
-368 -373 0
-369 -374 0
-370 -375 0
-361 -381 0
-362 -382 0
-363 -383 0
-364 -384 0
-365 -385 0
-361 -376 0
-362 -377 0
-363 -378 0
-364 -379 0
-365 -380 0
-361 -366 0
-362 -367 0
-363 -368 0
-364 -369 0
-365 -370 0
-356 -371 0
-357 -372 0
-358 -373 0
-359 -374 0
-360 -375 0
-356 -366 0
-357 -367 0
-358 -368 0
-359 -369 0
-360 -370 0
-346 -366 0
-347 -367 0
-348 -368 0
-349 -369 0
-350 -370 0
-346 -356 0
-347 -357 0
-348 -358 0
-349 -359 0
-350 -360 0
-341 -361 0
-342 -362 0
-343 -363 0
-344 -364 0
-345 -365 0
-341 -351 0
-342 -352 0
-343 -353 0
-344 -354 0
-345 -355 0
-341 -346 0
-342 -347 0
-343 -348 0
-344 -349 0
-345 -350 0
-336 -346 0
-337 -347 0
-338 -348 0
-339 -349 0
-340 -350 0
-331 -351 0
-332 -352 0
-333 -353 0
-334 -354 0
-335 -355 0
-331 -341 0
-332 -342 0
-333 -343 0
-334 -344 0
-335 -345 0
-326 -331 0
-327 -332 0
-328 -333 0
-329 -334 0
-330 -335 0
-321 -341 0
-322 -342 0
-323 -343 0
-324 -344 0
-325 -345 0
-321 -336 0
-322 -337 0
-323 -338 0
-324 -339 0
-325 -340 0
-321 -326 0
-322 -327 0
-323 -328 0
-324 -329 0
-325 -330 0
-311 -331 0
-312 -332 0
-313 -333 0
-314 -334 0
-315 -335 0
-311 -326 0
-312 -327 0
-313 -328 0
-314 -329 0
-315 -330 0
-311 -316 0
-312 -317 0
-313 -318 0
-314 -319 0
-315 -320 0
-306 -321 0
-307 -322 0
-308 -323 0
-309 -324 0
-310 -325 0
-301 -316 0
-302 -317 0
-303 -318 0
-304 -319 0
-305 -320 0
-296 -316 0
-297 -317 0
-298 -318 0
-299 -319 0
-300 -320 0
-286 -306 0
-287 -307 0
-288 -308 0
-289 -309 0
-290 -310 0
-281 -296 0
-282 -297 0
-283 -298 0
-284 -299 0
-285 -300 0
-276 -291 0
-277 -292 0
-278 -293 0
-279 -294 0
-280 -295 0
-271 -291 0
-272 -292 0
-273 -293 0
-274 -294 0
-275 -295 0
-271 -281 0
-272 -282 0
-273 -283 0
-274 -284 0
-275 -285 0
-266 -286 0
-267 -287 0
-268 -288 0
-269 -289 0
-270 -290 0
-266 -276 0
-267 -277 0
-268 -278 0
-269 -279 0
-270 -280 0
-266 -271 0
-267 -272 0
-268 -273 0
-269 -274 0
-270 -275 0
-261 -281 0
-262 -282 0
-263 -283 0
-264 -284 0
-265 -285 0
-261 -276 0
-262 -277 0
-263 -278 0
-264 -279 0
-265 -280 0
-256 -276 0
-257 -277 0
-258 -278 0
-259 -279 0
-260 -280 0
-256 -261 0
-257 -262 0
-258 -263 0
-259 -264 0
-260 -265 0
-251 -271 0
-252 -272 0
-253 -273 0
-254 -274 0
-255 -275 0
-251 -256 0
-252 -257 0
-253 -258 0
-254 -259 0
-255 -260 0
-246 -261 0
-247 -262 0
-248 -263 0
-249 -264 0
-250 -265 0
-246 -256 0
-247 -257 0
-248 -258 0
-249 -259 0
-250 -260 0
-246 -251 0
-247 -252 0
-248 -253 0
-249 -254 0
-250 -255 0
-241 -261 0
-242 -262 0
-243 -263 0
-244 -264 0
-245 -265 0
-241 -251 0
-242 -252 0
-243 -253 0
-244 -254 0
-245 -255 0
-236 -241 0
-237 -242 0
-238 -243 0
-239 -244 0
-240 -245 0
-226 -241 0
-227 -242 0
-228 -243 0
-229 -244 0
-230 -245 0
-226 -236 0
-227 -237 0
-228 -238 0
-229 -239 0
-230 -240 0
-216 -231 0
-217 -232 0
-218 -233 0
-219 -234 0
-220 -235 0
-216 -221 0
-217 -222 0
-218 -223 0
-219 -224 0
-220 -225 0
-211 -231 0
-212 -232 0
-213 -233 0
-214 -234 0
-215 -235 0
-211 -216 0
-212 -217 0
-213 -218 0
-214 -219 0
-215 -220 0
-206 -211 0
-207 -212 0
-208 -213 0
-209 -214 0
-210 -215 0
-201 -216 0
-202 -217 0
-203 -218 0
-204 -219 0
-205 -220 0
-201 -211 0
-202 -212 0
-203 -213 0
-204 -214 0
-205 -215 0
-196 -216 0
-197 -217 0
-198 -218 0
-199 -219 0
-200 -220 0
-196 -211 0
-197 -212 0
-198 -213 0
-199 -214 0
-200 -215 0
-196 -201 0
-197 -202 0
-198 -203 0
-199 -204 0
-200 -205 0
-191 -211 0
-192 -212 0
-193 -213 0
-194 -214 0
-195 -215 0
-191 -201 0
-192 -202 0
-193 -203 0
-194 -204 0
-195 -205 0
-191 -196 0
-192 -197 0
-193 -198 0
-194 -199 0
-195 -200 0
-186 -201 0
-187 -202 0
-188 -203 0
-189 -204 0
-190 -205 0
-186 -196 0
-187 -197 0
-188 -198 0
-189 -199 0
-190 -200 0
-181 -201 0
-182 -202 0
-183 -203 0
-184 -204 0
-185 -205 0
-181 -196 0
-182 -197 0
-183 -198 0
-184 -199 0
-185 -200 0
-181 -191 0
-182 -192 0
-183 -193 0
-184 -194 0
-185 -195 0
-176 -196 0
-177 -197 0
-178 -198 0
-179 -199 0
-180 -200 0
-176 -191 0
-177 -192 0
-178 -193 0
-179 -194 0
-180 -195 0
-176 -181 0
-177 -182 0
-178 -183 0
-179 -184 0
-180 -185 0
-171 -191 0
-172 -192 0
-173 -193 0
-174 -194 0
-175 -195 0
-171 -186 0
-172 -187 0
-173 -188 0
-174 -189 0
-175 -190 0
-171 -181 0
-172 -182 0
-173 -183 0
-174 -184 0
-175 -185 0
-166 -186 0
-167 -187 0
-168 -188 0
-169 -189 0
-170 -190 0
-166 -176 0
-167 -177 0
-168 -178 0
-169 -179 0
-170 -180 0
-161 -181 0
-162 -182 0
-163 -183 0
-164 -184 0
-165 -185 0
-161 -171 0
-162 -172 0
-163 -173 0
-164 -174 0
-165 -175 0
-161 -166 0
-162 -167 0
-163 -168 0
-164 -169 0
-165 -170 0
-156 -171 0
-157 -172 0
-158 -173 0
-159 -174 0
-160 -175 0
-156 -166 0
-157 -167 0
-158 -168 0
-159 -169 0
-160 -170 0
-151 -156 0
-152 -157 0
-153 -158 0
-154 -159 0
-155 -160 0
-146 -161 0
-147 -162 0
-148 -163 0
-149 -164 0
-150 -165 0
-146 -156 0
-147 -157 0
-148 -158 0
-149 -159 0
-150 -160 0
-146 -151 0
-147 -152 0
-148 -153 0
-149 -154 0
-150 -155 0
-141 -156 0
-142 -157 0
-143 -158 0
-144 -159 0
-145 -160 0
-141 -151 0
-142 -152 0
-143 -153 0
-144 -154 0
-145 -155 0
-136 -156 0
-137 -157 0
-138 -158 0
-139 -159 0
-140 -160 0
-136 -141 0
-137 -142 0
-138 -143 0
-139 -144 0
-140 -145 0
-131 -141 0
-132 -142 0
-133 -143 0
-134 -144 0
-135 -145 0
-126 -136 0
-127 -137 0
-128 -138 0
-129 -139 0
-130 -140 0
-126 -131 0
-127 -132 0
-128 -133 0
-129 -134 0
-130 -135 0
-121 -141 0
-122 -142 0
-123 -143 0
-124 -144 0
-125 -145 0
-121 -131 0
-122 -132 0
-123 -133 0
-124 -134 0
-125 -135 0
-121 -126 0
-122 -127 0
-123 -128 0
-124 -129 0
-125 -130 0
-116 -136 0
-117 -137 0
-118 -138 0
-119 -139 0
-120 -140 0
-116 -126 0
-117 -127 0
-118 -128 0
-119 -129 0
-120 -130 0
-116 -121 0
-117 -122 0
-118 -123 0
-119 -124 0
-120 -125 0
-111 -131 0
-112 -132 0
-113 -133 0
-114 -134 0
-115 -135 0
-111 -126 0
-112 -127 0
-113 -128 0
-114 -129 0
-115 -130 0
-111 -121 0
-112 -122 0
-113 -123 0
-114 -124 0
-115 -125 0
-106 -116 0
-107 -117 0
-108 -118 0
-109 -119 0
-110 -120 0
-106 -111 0
-107 -112 0
-108 -113 0
-109 -114 0
-110 -115 0
-101 -121 0
-102 -122 0
-103 -123 0
-104 -124 0
-105 -125 0
-101 -111 0
-102 -112 0
-103 -113 0
-104 -114 0
-105 -115 0
-96 -111 0
-97 -112 0
-98 -113 0
-99 -114 0
-100 -115 0
-91 -101 0
-92 -102 0
-93 -103 0
-94 -104 0
-95 -105 0
-91 -96 0
-92 -97 0
-93 -98 0
-94 -99 0
-95 -100 0
-86 -101 0
-87 -102 0
-88 -103 0
-89 -104 0
-90 -105 0
-86 -91 0
-87 -92 0
-88 -93 0
-89 -94 0
-90 -95 0
-81 -86 0
-82 -87 0
-83 -88 0
-84 -89 0
-85 -90 0
-76 -91 0
-77 -92 0
-78 -93 0
-79 -94 0
-80 -95 0
-71 -86 0
-72 -87 0
-73 -88 0
-74 -89 0
-75 -90 0
-71 -76 0
-72 -77 0
-73 -78 0
-74 -79 0
-75 -80 0
-66 -86 0
-67 -87 0
-68 -88 0
-69 -89 0
-70 -90 0
-66 -81 0
-67 -82 0
-68 -83 0
-69 -84 0
-70 -85 0
-66 -71 0
-67 -72 0
-68 -73 0
-69 -74 0
-70 -75 0
-61 -71 0
-62 -72 0
-63 -73 0
-64 -74 0
-65 -75 0
-56 -76 0
-57 -77 0
-58 -78 0
-59 -79 0
-60 -80 0
-56 -66 0
-57 -67 0
-58 -68 0
-59 -69 0
-60 -70 0
-51 -71 0
-52 -72 0
-53 -73 0
-54 -74 0
-55 -75 0
-51 -66 0
-52 -67 0
-53 -68 0
-54 -69 0
-55 -70 0
-46 -66 0
-47 -67 0
-48 -68 0
-49 -69 0
-50 -70 0
-46 -56 0
-47 -57 0
-48 -58 0
-49 -59 0
-50 -60 0
-46 -51 0
-47 -52 0
-48 -53 0
-49 -54 0
-50 -55 0
-41 -61 0
-42 -62 0
-43 -63 0
-44 -64 0
-45 -65 0
-41 -46 0
-42 -47 0
-43 -48 0
-44 -49 0
-45 -50 0
-36 -51 0
-37 -52 0
-38 -53 0
-39 -54 0
-40 -55 0
-36 -46 0
-37 -47 0
-38 -48 0
-39 -49 0
-40 -50 0
-36 -41 0
-37 -42 0
-38 -43 0
-39 -44 0
-40 -45 0
-31 -51 0
-32 -52 0
-33 -53 0
-34 -54 0
-35 -55 0
-31 -46 0
-32 -47 0
-33 -48 0
-34 -49 0
-35 -50 0
-31 -36 0
-32 -37 0
-33 -38 0
-34 -39 0
-35 -40 0
-21 -31 0
-22 -32 0
-23 -33 0
-24 -34 0
-25 -35 0
-16 -36 0
-17 -37 0
-18 -38 0
-19 -39 0
-20 -40 0
-16 -26 0
-17 -27 0
-18 -28 0
-19 -29 0
-20 -30 0
-11 -16 0
-12 -17 0
-13 -18 0
-14 -19 0
-15 -20 0
-6 -26 0
-7 -27 0
-8 -28 0
-9 -29 0
-10 -30 0
-6 -21 0
-7 -22 0
-8 -23 0
-9 -24 0
-10 -25 0
-6 -16 0
-7 -17 0
-8 -18 0
-9 -19 0
-10 -20 0
-1 -16 0
-2 -17 0
-3 -18 0
-4 -19 0
-5 -20 0
-1 -6 0
-2 -7 0
-3 -8 0
-4 -9 0
-5 -10 0
-326 -401 0
-327 -402 0
-328 -403 0
-329 -404 0
-330 -405 0
-121 -301 0
-122 -302 0
-123 -303 0
-124 -304 0
-125 -305 0
-86 -381 0
-87 -382 0
-88 -383 0
-89 -384 0
-90 -385 0
-106 -431 0
-107 -432 0
-108 -433 0
-109 -434 0
-110 -435 0
-131 -326 0
-132 -327 0
-133 -328 0
-134 -329 0
-135 -330 0
-11 -271 0
-12 -272 0
-13 -273 0
-14 -274 0
-15 -275 0
-111 -151 0
-112 -152 0
-113 -153 0
-114 -154 0
-115 -155 0
-181 -496 0
-182 -497 0
-183 -498 0
-184 -499 0
-185 -500 0
-71 -491 0
-72 -492 0
-73 -493 0
-74 -494 0
-75 -495 0
-226 -306 0
-227 -307 0
-228 -308 0
-229 -309 0
-230 -310 0
-21 -491 0
-22 -492 0
-23 -493 0
-24 -494 0
-25 -495 0
-121 -231 0
-122 -232 0
-123 -233 0
-124 -234 0
-125 -235 0
-131 -391 0
-132 -392 0
-133 -393 0
-134 -394 0
-135 -395 0
-91 -141 0
-92 -142 0
-93 -143 0
-94 -144 0
-95 -145 0
-1 -91 0
-2 -92 0
-3 -93 0
-4 -94 0
-5 -95 0
-16 -401 0
-17 -402 0
-18 -403 0
-19 -404 0
-20 -405 0
-251 -306 0
-252 -307 0
-253 -308 0
-254 -309 0
-255 -310 0
-111 -446 0
-112 -447 0
-113 -448 0
-114 -449 0
-115 -450 0
-136 -246 0
-137 -247 0
-138 -248 0
-139 -249 0
-140 -250 0
-166 -396 0
-167 -397 0
-168 -398 0
-169 -399 0
-170 -400 0
-61 -261 0
-62 -262 0
-63 -263 0
-64 -264 0
-65 -265 0
-21 -376 0
-22 -377 0
-23 -378 0
-24 -379 0
-25 -380 0
-36 -86 0
-37 -87 0
-38 -88 0
-39 -89 0
-40 -90 0
-101 -191 0
-102 -192 0
-103 -193 0
-104 -194 0
-105 -195 0
-221 -261 0
-222 -262 0
-223 -263 0
-224 -264 0
-225 -265 0
-231 -446 0
-232 -447 0
-233 -448 0
-234 -449 0
-235 -450 0
-126 -491 0
-127 -492 0
-128 -493 0
-129 -494 0
-130 -495 0
-221 -476 0
-222 -477 0
-223 -478 0
-224 -479 0
-225 -480 0
-306 -421 0
-307 -422 0
-308 -423 0
-309 -424 0
-310 -425 0
-176 -486 0
-177 -487 0
-178 -488 0
-179 -489 0
-180 -490 0
-81 -221 0
-82 -222 0
-83 -223 0
-84 -224 0
-85 -225 0
-286 -371 0
-287 -372 0
-288 -373 0
-289 -374 0
-290 -375 0
-86 -191 0
-87 -192 0
-88 -193 0
-89 -194 0
-90 -195 0
-166 -406 0
-167 -407 0
-168 -408 0
-169 -409 0
-170 -410 0
-46 -216 0
-47 -217 0
-48 -218 0
-49 -219 0
-50 -220 0
-61 -201 0
-62 -202 0
-63 -203 0
-64 -204 0
-65 -205 0
-36 -116 0
-37 -117 0
-38 -118 0
-39 -119 0
-40 -120 0
-66 -91 0
-67 -92 0
-68 -93 0
-69 -94 0
-70 -95 0
-91 -151 0
-92 -152 0
-93 -153 0
-94 -154 0
-95 -155 0
-386 -446 0
-387 -447 0
-388 -448 0
-389 -449 0
-390 -450 0
-136 -361 0
-137 -362 0
-138 -363 0
-139 -364 0
-140 -365 0
-221 -451 0
-222 -452 0
-223 -453 0
-224 -454 0
-225 -455 0
-181 -356 0
-182 -357 0
-183 -358 0
-184 -359 0
-185 -360 0
-71 -476 0
-72 -477 0
-73 -478 0
-74 -479 0
-75 -480 0
-16 -256 0
-17 -257 0
-18 -258 0
-19 -259 0
-20 -260 0
-21 -236 0
-22 -237 0
-23 -238 0
-24 -239 0
-25 -240 0
-141 -176 0
-142 -177 0
-143 -178 0
-144 -179 0
-145 -180 0
-346 -436 0
-347 -437 0
-348 -438 0
-349 -439 0
-350 -440 0
-316 -361 0
-317 -362 0
-318 -363 0
-319 -364 0
-320 -365 0
-296 -466 0
-297 -467 0
-298 -468 0
-299 -469 0
-300 -470 0
-211 -391 0
-212 -392 0
-213 -393 0
-214 -394 0
-215 -395 0
-116 -216 0
-117 -217 0
-118 -218 0
-119 -219 0
-120 -220 0
-206 -256 0
-207 -257 0
-208 -258 0
-209 -259 0
-210 -260 0
-71 -331 0
-72 -332 0
-73 -333 0
-74 -334 0
-75 -335 0
-216 -296 0
-217 -297 0
-218 -298 0
-219 -299 0
-220 -300 0
-111 -231 0
-112 -232 0
-113 -233 0
-114 -234 0
-115 -235 0
-21 -86 0
-22 -87 0
-23 -88 0
-24 -89 0
-25 -90 0
-56 -381 0
-57 -382 0
-58 -383 0
-59 -384 0
-60 -385 0
-256 -476 0
-257 -477 0
-258 -478 0
-259 -479 0
-260 -480 0
-276 -476 0
-277 -477 0
-278 -478 0
-279 -479 0
-280 -480 0
-91 -451 0
-92 -452 0
-93 -453 0
-94 -454 0
-95 -455 0
-51 -476 0
-52 -477 0
-53 -478 0
-54 -479 0
-55 -480 0
-281 -411 0
-282 -412 0
-283 -413 0
-284 -414 0
-285 -415 0
-61 -381 0
-62 -382 0
-63 -383 0
-64 -384 0
-65 -385 0
-11 -91 0
-12 -92 0
-13 -93 0
-14 -94 0
-15 -95 0
-101 -431 0
-102 -432 0
-103 -433 0
-104 -434 0
-105 -435 0
-326 -441 0
-327 -442 0
-328 -443 0
-329 -444 0
-330 -445 0
-26 -331 0
-27 -332 0
-28 -333 0
-29 -334 0
-30 -335 0
-6 -166 0
-7 -167 0
-8 -168 0
-9 -169 0
-10 -170 0
-261 -381 0
-262 -382 0
-263 -383 0
-264 -384 0
-265 -385 0
-76 -471 0
-77 -472 0
-78 -473 0
-79 -474 0
-80 -475 0
-21 -331 0
-22 -332 0
-23 -333 0
-24 -334 0
-25 -335 0
-146 -401 0
-147 -402 0
-148 -403 0
-149 -404 0
-150 -405 0
-11 -386 0
-12 -387 0
-13 -388 0
-14 -389 0
-15 -390 0
-56 -301 0
-57 -302 0
-58 -303 0
-59 -304 0
-60 -305 0
-91 -421 0
-92 -422 0
-93 -423 0
-94 -424 0
-95 -425 0
-206 -466 0
-207 -467 0
-208 -468 0
-209 -469 0
-210 -470 0
-176 -216 0
-177 -217 0
-178 -218 0
-179 -219 0
-180 -220 0
-166 -321 0
-167 -322 0
-168 -323 0
-169 -324 0
-170 -325 0
-261 -426 0
-262 -427 0
-263 -428 0
-264 -429 0
-265 -430 0
-186 -231 0
-187 -232 0
-188 -233 0
-189 -234 0
-190 -235 0
-281 -326 0
-282 -327 0
-283 -328 0
-284 -329 0
-285 -330 0
-356 -431 0
-357 -432 0
-358 -433 0
-359 -434 0
-360 -435 0
-26 -286 0
-27 -287 0
-28 -288 0
-29 -289 0
-30 -290 0
-136 -271 0
-137 -272 0
-138 -273 0
-139 -274 0
-140 -275 0
-21 -121 0
-22 -122 0
-23 -123 0
-24 -124 0
-25 -125 0
-221 -456 0
-222 -457 0
-223 -458 0
-224 -459 0
-225 -460 0
-21 -456 0
-22 -457 0
-23 -458 0
-24 -459 0
-25 -460 0
-271 -361 0
-272 -362 0
-273 -363 0
-274 -364 0
-275 -365 0
-211 -396 0
-212 -397 0
-213 -398 0
-214 -399 0
-215 -400 0
-336 -371 0
-337 -372 0
-338 -373 0
-339 -374 0
-340 -375 0
-11 -221 0
-12 -222 0
-13 -223 0
-14 -224 0
-15 -225 0
-46 -366 0
-47 -367 0
-48 -368 0
-49 -369 0
-50 -370 0
-231 -471 0
-232 -472 0
-233 -473 0
-234 -474 0
-235 -475 0
-36 -246 0
-37 -247 0
-38 -248 0
-39 -249 0
-40 -250 0
-11 -406 0
-12 -407 0
-13 -408 0
-14 -409 0
-15 -410 0
-341 -421 0
-342 -422 0
-343 -423 0
-344 -424 0
-345 -425 0
-76 -356 0
-77 -357 0
-78 -358 0
-79 -359 0
-80 -360 0
-231 -361 0
-232 -362 0
-233 -363 0
-234 -364 0
-235 -365 0
-216 -476 0
-217 -477 0
-218 -478 0
-219 -479 0
-220 -480 0
-16 -61 0
-17 -62 0
-18 -63 0
-19 -64 0
-20 -65 0
-66 -306 0
-67 -307 0
-68 -308 0
-69 -309 0
-70 -310 0
-286 -351 0
-287 -352 0
-288 -353 0
-289 -354 0
-290 -355 0
-116 -166 0
-117 -167 0
-118 -168 0
-119 -169 0
-120 -170 0
-266 -476 0
-267 -477 0
-268 -478 0
-269 -479 0
-270 -480 0
-106 -396 0
-107 -397 0
-108 -398 0
-109 -399 0
-110 -400 0
-81 -386 0
-82 -387 0
-83 -388 0
-84 -389 0
-85 -390 0
-66 -161 0
-67 -162 0
-68 -163 0
-69 -164 0
-70 -165 0
-196 -466 0
-197 -467 0
-198 -468 0
-199 -469 0
-200 -470 0
-61 -231 0
-62 -232 0
-63 -233 0
-64 -234 0
-65 -235 0
-46 -446 0
-47 -447 0
-48 -448 0
-49 -449 0
-50 -450 0
-6 -101 0
-7 -102 0
-8 -103 0
-9 -104 0
-10 -105 0
-306 -366 0
-307 -367 0
-308 -368 0
-309 -369 0
-310 -370 0
-36 -256 0
-37 -257 0
-38 -258 0
-39 -259 0
-40 -260 0
-131 -296 0
-132 -297 0
-133 -298 0
-134 -299 0
-135 -300 0
-266 -296 0
-267 -297 0
-268 -298 0
-269 -299 0
-270 -300 0
-281 -316 0
-282 -317 0
-283 -318 0
-284 -319 0
-285 -320 0
-106 -231 0
-107 -232 0
-108 -233 0
-109 -234 0
-110 -235 0
-216 -256 0
-217 -257 0
-218 -258 0
-219 -259 0
-220 -260 0
-96 -211 0
-97 -212 0
-98 -213 0
-99 -214 0
-100 -215 0
-91 -341 0
-92 -342 0
-93 -343 0
-94 -344 0
-95 -345 0
-401 -456 0
-402 -457 0
-403 -458 0
-404 -459 0
-405 -460 0
-86 -171 0
-87 -172 0
-88 -173 0
-89 -174 0
-90 -175 0
-51 -436 0
-52 -437 0
-53 -438 0
-54 -439 0
-55 -440 0
-116 -266 0
-117 -267 0
-118 -268 0
-119 -269 0
-120 -270 0
-41 -396 0
-42 -397 0
-43 -398 0
-44 -399 0
-45 -400 0
-86 -391 0
-87 -392 0
-88 -393 0
-89 -394 0
-90 -395 0
-101 -316 0
-102 -317 0
-103 -318 0
-104 -319 0
-105 -320 0
-156 -241 0
-157 -242 0
-158 -243 0
-159 -244 0
-160 -245 0
-76 -331 0
-77 -332 0
-78 -333 0
-79 -334 0
-80 -335 0
-46 -486 0
-47 -487 0
-48 -488 0
-49 -489 0
-50 -490 0
-176 -321 0
-177 -322 0
-178 -323 0
-179 -324 0
-180 -325 0
-181 -401 0
-182 -402 0
-183 -403 0
-184 -404 0
-185 -405 0
-371 -411 0
-372 -412 0
-373 -413 0
-374 -414 0
-375 -415 0
-11 -121 0
-12 -122 0
-13 -123 0
-14 -124 0
-15 -125 0
-26 -386 0
-27 -387 0
-28 -388 0
-29 -389 0
-30 -390 0
-186 -421 0
-187 -422 0
-188 -423 0
-189 -424 0
-190 -425 0
-281 -321 0
-282 -322 0
-283 -323 0
-284 -324 0
-285 -325 0
-26 -111 0
-27 -112 0
-28 -113 0
-29 -114 0
-30 -115 0
-146 -431 0
-147 -432 0
-148 -433 0
-149 -434 0
-150 -435 0
-16 -331 0
-17 -332 0
-18 -333 0
-19 -334 0
-20 -335 0
-401 -451 0
-402 -452 0
-403 -453 0
-404 -454 0
-405 -455 0
-76 -241 0
-77 -242 0
-78 -243 0
-79 -244 0
-80 -245 0
-386 -451 0
-387 -452 0
-388 -453 0
-389 -454 0
-390 -455 0
-241 -416 0
-242 -417 0
-243 -418 0
-244 -419 0
-245 -420 0
-226 -351 0
-227 -352 0
-228 -353 0
-229 -354 0
-230 -355 0
-421 -466 0
-422 -467 0
-423 -468 0
-424 -469 0
-425 -470 0
-406 -476 0
-407 -477 0
-408 -478 0
-409 -479 0
-410 -480 0
-421 -461 0
-422 -462 0
-423 -463 0
-424 -464 0
-425 -465 0
-271 -401 0
-272 -402 0
-273 -403 0
-274 -404 0
-275 -405 0
-186 -361 0
-187 -362 0
-188 -363 0
-189 -364 0
-190 -365 0
-1 -436 0
-2 -437 0
-3 -438 0
-4 -439 0
-5 -440 0
-56 -191 0
-57 -192 0
-58 -193 0
-59 -194 0
-60 -195 0
-151 -191 0
-152 -192 0
-153 -193 0
-154 -194 0
-155 -195 0
-201 -331 0
-202 -332 0
-203 -333 0
-204 -334 0
-205 -335 0
-171 -496 0
-172 -497 0
-173 -498 0
-174 -499 0
-175 -500 0
-1 -206 0
-2 -207 0
-3 -208 0
-4 -209 0
-5 -210 0
-16 -301 0
-17 -302 0
-18 -303 0
-19 -304 0
-20 -305 0
-131 -281 0
-132 -282 0
-133 -283 0
-134 -284 0
-135 -285 0
-156 -436 0
-157 -437 0
-158 -438 0
-159 -439 0
-160 -440 0
-6 -186 0
-7 -187 0
-8 -188 0
-9 -189 0
-10 -190 0
-86 -121 0
-87 -122 0
-88 -123 0
-89 -124 0
-90 -125 0
-111 -351 0
-112 -352 0
-113 -353 0
-114 -354 0
-115 -355 0
-401 -471 0
-402 -472 0
-403 -473 0
-404 -474 0
-405 -475 0
-21 -336 0
-22 -337 0
-23 -338 0
-24 -339 0
-25 -340 0
-246 -281 0
-247 -282 0
-248 -283 0
-249 -284 0
-250 -285 0
-191 -381 0
-192 -382 0
-193 -383 0
-194 -384 0
-195 -385 0
-151 -181 0
-152 -182 0
-153 -183 0
-154 -184 0
-155 -185 0
-6 -386 0
-7 -387 0
-8 -388 0
-9 -389 0
-10 -390 0
-271 -376 0
-272 -377 0
-273 -378 0
-274 -379 0
-275 -380 0
-346 -411 0
-347 -412 0
-348 -413 0
-349 -414 0
-350 -415 0
-246 -411 0
-247 -412 0
-248 -413 0
-249 -414 0
-250 -415 0
-236 -471 0
-237 -472 0
-238 -473 0
-239 -474 0
-240 -475 0
-71 -451 0
-72 -452 0
-73 -453 0
-74 -454 0
-75 -455 0
-131 -226 0
-132 -227 0
-133 -228 0
-134 -229 0
-135 -230 0
-141 -491 0
-142 -492 0
-143 -493 0
-144 -494 0
-145 -495 0
-201 -266 0
-202 -267 0
-203 -268 0
-204 -269 0
-205 -270 0
-36 -371 0
-37 -372 0
-38 -373 0
-39 -374 0
-40 -375 0
-141 -206 0
-142 -207 0
-143 -208 0
-144 -209 0
-145 -210 0
-326 -466 0
-327 -467 0
-328 -468 0
-329 -469 0
-330 -470 0
-381 -491 0
-382 -492 0
-383 -493 0
-384 -494 0
-385 -495 0
